p cnf 231 1880
1 2 3 4 5 6 7 8 9 10 11 0
12 13 14 15 16 17 18 19 20 21 22 0
23 24 25 26 27 28 29 30 31 32 33 0
34 35 36 37 38 39 40 41 42 43 44 0
45 46 47 48 49 50 51 52 53 54 55 0
56 57 58 59 60 61 62 63 64 65 66 0
67 68 69 70 71 72 73 74 75 76 77 0
78 79 80 81 82 83 84 85 86 87 88 0
89 90 91 92 93 94 95 96 97 98 99 0
100 101 102 103 104 105 106 107 108 109 110 0
111 112 113 114 115 116 117 118 119 120 121 0
122 123 124 125 126 127 128 129 130 131 132 0
133 134 135 136 137 138 139 140 141 142 143 0
144 145 146 147 148 149 150 151 152 153 154 0
155 156 157 158 159 160 161 162 163 164 165 0
166 167 168 169 170 171 172 173 174 175 176 0
177 178 179 180 181 182 183 184 185 186 187 0
188 189 190 191 192 193 194 195 196 197 198 0
199 200 201 202 203 204 205 206 207 208 209 0
210 211 212 213 214 215 216 217 218 219 220 0
221 222 223 224 225 226 227 228 229 230 231 0
-56 -188 0
-57 -189 0
-58 -190 0
-59 -191 0
-60 -192 0
-61 -193 0
-62 -194 0
-63 -195 0
-64 -196 0
-65 -197 0
-66 -198 0
-34 -89 0
-35 -90 0
-36 -91 0
-37 -92 0
-38 -93 0
-39 -94 0
-40 -95 0
-41 -96 0
-42 -97 0
-43 -98 0
-44 -99 0
-23 -133 0
-24 -134 0
-25 -135 0
-26 -136 0
-27 -137 0
-28 -138 0
-29 -139 0
-30 -140 0
-31 -141 0
-32 -142 0
-33 -143 0
-45 -100 0
-46 -101 0
-47 -102 0
-48 -103 0
-49 -104 0
-50 -105 0
-51 -106 0
-52 -107 0
-53 -108 0
-54 -109 0
-55 -110 0
-78 -89 0
-79 -90 0
-80 -91 0
-81 -92 0
-82 -93 0
-83 -94 0
-84 -95 0
-85 -96 0
-86 -97 0
-87 -98 0
-88 -99 0
-177 -122 0
-178 -123 0
-179 -124 0
-180 -125 0
-181 -126 0
-182 -127 0
-183 -128 0
-184 -129 0
-185 -130 0
-186 -131 0
-187 -132 0
-199 -89 0
-200 -90 0
-201 -91 0
-202 -92 0
-203 -93 0
-204 -94 0
-205 -95 0
-206 -96 0
-207 -97 0
-208 -98 0
-209 -99 0
-199 -188 0
-200 -189 0
-201 -190 0
-202 -191 0
-203 -192 0
-204 -193 0
-205 -194 0
-206 -195 0
-207 -196 0
-208 -197 0
-209 -198 0
-12 -111 0
-13 -112 0
-14 -113 0
-15 -114 0
-16 -115 0
-17 -116 0
-18 -117 0
-19 -118 0
-20 -119 0
-21 -120 0
-22 -121 0
-155 -45 0
-156 -46 0
-157 -47 0
-158 -48 0
-159 -49 0
-160 -50 0
-161 -51 0
-162 -52 0
-163 -53 0
-164 -54 0
-165 -55 0
-155 -144 0
-156 -145 0
-157 -146 0
-158 -147 0
-159 -148 0
-160 -149 0
-161 -150 0
-162 -151 0
-163 -152 0
-164 -153 0
-165 -154 0
-56 -111 0
-57 -112 0
-58 -113 0
-59 -114 0
-60 -115 0
-61 -116 0
-62 -117 0
-63 -118 0
-64 -119 0
-65 -120 0
-66 -121 0
-166 -133 0
-167 -134 0
-168 -135 0
-169 -136 0
-170 -137 0
-171 -138 0
-172 -139 0
-173 -140 0
-174 -141 0
-175 -142 0
-176 -143 0
-67 -100 0
-68 -101 0
-69 -102 0
-70 -103 0
-71 -104 0
-72 -105 0
-73 -106 0
-74 -107 0
-75 -108 0
-76 -109 0
-77 -110 0
-221 -89 0
-222 -90 0
-223 -91 0
-224 -92 0
-225 -93 0
-226 -94 0
-227 -95 0
-228 -96 0
-229 -97 0
-230 -98 0
-231 -99 0
-56 -210 0
-57 -211 0
-58 -212 0
-59 -213 0
-60 -214 0
-61 -215 0
-62 -216 0
-63 -217 0
-64 -218 0
-65 -219 0
-66 -220 0
-23 -56 0
-24 -57 0
-25 -58 0
-26 -59 0
-27 -60 0
-28 -61 0
-29 -62 0
-30 -63 0
-31 -64 0
-32 -65 0
-33 -66 0
-177 -45 0
-178 -46 0
-179 -47 0
-180 -48 0
-181 -49 0
-182 -50 0
-183 -51 0
-184 -52 0
-185 -53 0
-186 -54 0
-187 -55 0
-45 -122 0
-46 -123 0
-47 -124 0
-48 -125 0
-49 -126 0
-50 -127 0
-51 -128 0
-52 -129 0
-53 -130 0
-54 -131 0
-55 -132 0
-78 -111 0
-79 -112 0
-80 -113 0
-81 -114 0
-82 -115 0
-83 -116 0
-84 -117 0
-85 -118 0
-86 -119 0
-87 -120 0
-88 -121 0
-89 -100 0
-90 -101 0
-91 -102 0
-92 -103 0
-93 -104 0
-94 -105 0
-95 -106 0
-96 -107 0
-97 -108 0
-98 -109 0
-99 -110 0
-12 -34 0
-13 -35 0
-14 -36 0
-15 -37 0
-16 -38 0
-17 -39 0
-18 -40 0
-19 -41 0
-20 -42 0
-21 -43 0
-22 -44 0
-1 -78 0
-2 -79 0
-3 -80 0
-4 -81 0
-5 -82 0
-6 -83 0
-7 -84 0
-8 -85 0
-9 -86 0
-10 -87 0
-11 -88 0
-155 -67 0
-156 -68 0
-157 -69 0
-158 -70 0
-159 -71 0
-160 -72 0
-161 -73 0
-162 -74 0
-163 -75 0
-164 -76 0
-165 -77 0
-166 -56 0
-167 -57 0
-168 -58 0
-169 -59 0
-170 -60 0
-171 -61 0
-172 -62 0
-173 -63 0
-174 -64 0
-175 -65 0
-176 -66 0
-100 -210 0
-101 -211 0
-102 -212 0
-103 -213 0
-104 -214 0
-105 -215 0
-106 -216 0
-107 -217 0
-108 -218 0
-109 -219 0
-110 -220 0
-221 -12 0
-222 -13 0
-223 -14 0
-224 -15 0
-225 -16 0
-226 -17 0
-227 -18 0
-228 -19 0
-229 -20 0
-230 -21 0
-231 -22 0
-56 -133 0
-57 -134 0
-58 -135 0
-59 -136 0
-60 -137 0
-61 -138 0
-62 -139 0
-63 -140 0
-64 -141 0
-65 -142 0
-66 -143 0
-67 -122 0
-68 -123 0
-69 -124 0
-70 -125 0
-71 -126 0
-72 -127 0
-73 -128 0
-74 -129 0
-75 -130 0
-76 -131 0
-77 -132 0
-188 -122 0
-189 -123 0
-190 -124 0
-191 -125 0
-192 -126 0
-193 -127 0
-194 -128 0
-195 -129 0
-196 -130 0
-197 -131 0
-198 -132 0
-23 -78 0
-24 -79 0
-25 -80 0
-26 -81 0
-27 -82 0
-28 -83 0
-29 -84 0
-30 -85 0
-31 -86 0
-32 -87 0
-33 -88 0
-177 -67 0
-178 -68 0
-179 -69 0
-180 -70 0
-181 -71 0
-182 -72 0
-183 -73 0
-184 -74 0
-185 -75 0
-186 -76 0
-187 -77 0
-122 -210 0
-123 -211 0
-124 -212 0
-125 -213 0
-126 -214 0
-127 -215 0
-128 -216 0
-129 -217 0
-130 -218 0
-131 -219 0
-132 -220 0
-89 -122 0
-90 -123 0
-91 -124 0
-92 -125 0
-93 -126 0
-94 -127 0
-95 -128 0
-96 -129 0
-97 -130 0
-98 -131 0
-99 -132 0
-1 -100 0
-2 -101 0
-3 -102 0
-4 -103 0
-5 -104 0
-6 -105 0
-7 -106 0
-8 -107 0
-9 -108 0
-10 -109 0
-11 -110 0
-155 -89 0
-156 -90 0
-157 -91 0
-158 -92 0
-159 -93 0
-160 -94 0
-161 -95 0
-162 -96 0
-163 -97 0
-164 -98 0
-165 -99 0
-221 -34 0
-222 -35 0
-223 -36 0
-224 -37 0
-225 -38 0
-226 -39 0
-227 -40 0
-228 -41 0
-229 -42 0
-230 -43 0
-231 -44 0
-67 -144 0
-68 -145 0
-69 -146 0
-70 -147 0
-71 -148 0
-72 -149 0
-73 -150 0
-74 -151 0
-75 -152 0
-76 -153 0
-77 -154 0
-144 -1 0
-145 -2 0
-146 -3 0
-147 -4 0
-148 -5 0
-149 -6 0
-150 -7 0
-151 -8 0
-152 -9 0
-153 -10 0
-154 -11 0
-122 -133 0
-123 -134 0
-124 -135 0
-125 -136 0
-126 -137 0
-127 -138 0
-128 -139 0
-129 -140 0
-130 -141 0
-131 -142 0
-132 -143 0
-23 -100 0
-24 -101 0
-25 -102 0
-26 -103 0
-27 -104 0
-28 -105 0
-29 -106 0
-30 -107 0
-31 -108 0
-32 -109 0
-33 -110 0
-45 -67 0
-46 -68 0
-47 -69 0
-48 -70 0
-49 -71 0
-50 -72 0
-51 -73 0
-52 -74 0
-53 -75 0
-54 -76 0
-55 -77 0
-144 -100 0
-145 -101 0
-146 -102 0
-147 -103 0
-148 -104 0
-149 -105 0
-150 -106 0
-151 -107 0
-152 -108 0
-153 -109 0
-154 -110 0
-177 -89 0
-178 -90 0
-179 -91 0
-180 -92 0
-181 -93 0
-182 -94 0
-183 -95 0
-184 -96 0
-185 -97 0
-186 -98 0
-187 -99 0
-199 -56 0
-200 -57 0
-201 -58 0
-202 -59 0
-203 -60 0
-204 -61 0
-205 -62 0
-206 -63 0
-207 -64 0
-208 -65 0
-209 -66 0
-34 -188 0
-35 -189 0
-36 -190 0
-37 -191 0
-38 -192 0
-39 -193 0
-40 -194 0
-41 -195 0
-42 -196 0
-43 -197 0
-44 -198 0
-89 -144 0
-90 -145 0
-91 -146 0
-92 -147 0
-93 -148 0
-94 -149 0
-95 -150 0
-96 -151 0
-97 -152 0
-98 -153 0
-99 -154 0
-1 -23 0
-2 -24 0
-3 -25 0
-4 -26 0
-5 -27 0
-6 -28 0
-7 -29 0
-8 -30 0
-9 -31 0
-10 -32 0
-11 -33 0
-1 -122 0
-2 -123 0
-3 -124 0
-4 -125 0
-5 -126 0
-6 -127 0
-7 -128 0
-8 -129 0
-9 -130 0
-10 -131 0
-11 -132 0
-133 -144 0
-134 -145 0
-135 -146 0
-136 -147 0
-137 -148 0
-138 -149 0
-139 -150 0
-140 -151 0
-141 -152 0
-142 -153 0
-143 -154 0
-155 -111 0
-156 -112 0
-157 -113 0
-158 -114 0
-159 -115 0
-160 -116 0
-161 -117 0
-162 -118 0
-163 -119 0
-164 -120 0
-165 -121 0
-166 -100 0
-167 -101 0
-168 -102 0
-169 -103 0
-170 -104 0
-171 -105 0
-172 -106 0
-173 -107 0
-174 -108 0
-175 -109 0
-176 -110 0
-12 -210 0
-13 -211 0
-14 -212 0
-15 -213 0
-16 -214 0
-17 -215 0
-18 -216 0
-19 -217 0
-20 -218 0
-21 -219 0
-22 -220 0
-144 -23 0
-145 -24 0
-146 -25 0
-147 -26 0
-148 -27 0
-149 -28 0
-150 -29 0
-151 -30 0
-152 -31 0
-153 -32 0
-154 -33 0
-177 -12 0
-178 -13 0
-179 -14 0
-180 -15 0
-181 -16 0
-182 -17 0
-183 -18 0
-184 -19 0
-185 -20 0
-186 -21 0
-187 -22 0
-221 -188 0
-222 -189 0
-223 -190 0
-224 -191 0
-225 -192 0
-226 -193 0
-227 -194 0
-228 -195 0
-229 -196 0
-230 -197 0
-231 -198 0
-23 -122 0
-24 -123 0
-25 -124 0
-26 -125 0
-27 -126 0
-28 -127 0
-29 -128 0
-30 -129 0
-31 -130 0
-32 -131 0
-33 -132 0
-45 -89 0
-46 -90 0
-47 -91 0
-48 -92 0
-49 -93 0
-50 -94 0
-51 -95 0
-52 -96 0
-53 -97 0
-54 -98 0
-55 -99 0
-34 -111 0
-35 -112 0
-36 -113 0
-37 -114 0
-38 -115 0
-39 -116 0
-40 -117 0
-41 -118 0
-42 -119 0
-43 -120 0
-44 -121 0
-144 -122 0
-145 -123 0
-146 -124 0
-147 -125 0
-148 -126 0
-149 -127 0
-150 -128 0
-151 -129 0
-152 -130 0
-153 -131 0
-154 -132 0
-45 -188 0
-46 -189 0
-47 -190 0
-48 -191 0
-49 -192 0
-50 -193 0
-51 -194 0
-52 -195 0
-53 -196 0
-54 -197 0
-55 -198 0
-34 -210 0
-35 -211 0
-36 -212 0
-37 -213 0
-38 -214 0
-39 -215 0
-40 -216 0
-41 -217 0
-42 -218 0
-43 -219 0
-44 -220 0
-1 -45 0
-2 -46 0
-3 -47 0
-4 -48 0
-5 -49 0
-6 -50 0
-7 -51 0
-8 -52 0
-9 -53 0
-10 -54 0
-11 -55 0
-199 -210 0
-200 -211 0
-201 -212 0
-202 -213 0
-203 -214 0
-204 -215 0
-205 -216 0
-206 -217 0
-207 -218 0
-208 -219 0
-209 -220 0
-155 -133 0
-156 -134 0
-157 -135 0
-158 -136 0
-159 -137 0
-160 -138 0
-161 -139 0
-162 -140 0
-163 -141 0
-164 -142 0
-165 -143 0
-12 -133 0
-13 -134 0
-14 -135 0
-15 -136 0
-16 -137 0
-17 -138 0
-18 -139 0
-19 -140 0
-20 -141 0
-21 -142 0
-22 -143 0
-166 -122 0
-167 -123 0
-168 -124 0
-169 -125 0
-170 -126 0
-171 -127 0
-172 -128 0
-173 -129 0
-174 -130 0
-175 -131 0
-176 -132 0
-67 -89 0
-68 -90 0
-69 -91 0
-70 -92 0
-71 -93 0
-72 -94 0
-73 -95 0
-74 -96 0
-75 -97 0
-76 -98 0
-77 -99 0
-23 -45 0
-24 -46 0
-25 -47 0
-26 -48 0
-27 -49 0
-28 -50 0
-29 -51 0
-30 -52 0
-31 -53 0
-32 -54 0
-33 -55 0
-144 -45 0
-145 -46 0
-146 -47 0
-147 -48 0
-148 -49 0
-149 -50 0
-150 -51 0
-151 -52 0
-152 -53 0
-153 -54 0
-154 -55 0
-177 -34 0
-178 -35 0
-179 -36 0
-180 -37 0
-181 -38 0
-182 -39 0
-183 -40 0
-184 -41 0
-185 -42 0
-186 -43 0
-187 -44 0
-221 -210 0
-222 -211 0
-223 -212 0
-224 -213 0
-225 -214 0
-226 -215 0
-227 -216 0
-228 -217 0
-229 -218 0
-230 -219 0
-231 -220 0
-45 -111 0
-46 -112 0
-47 -113 0
-48 -114 0
-49 -115 0
-50 -116 0
-51 -117 0
-52 -118 0
-53 -119 0
-54 -120 0
-55 -121 0
-34 -133 0
-35 -134 0
-36 -135 0
-37 -136 0
-38 -137 0
-39 -138 0
-40 -139 0
-41 -140 0
-42 -141 0
-43 -142 0
-44 -143 0
-78 -133 0
-79 -134 0
-80 -135 0
-81 -136 0
-82 -137 0
-83 -138 0
-84 -139 0
-85 -140 0
-86 -141 0
-87 -142 0
-88 -143 0
-199 -133 0
-200 -134 0
-201 -135 0
-202 -136 0
-203 -137 0
-204 -138 0
-205 -139 0
-206 -140 0
-207 -141 0
-208 -142 0
-209 -143 0
-1 -67 0
-2 -68 0
-3 -69 0
-4 -70 0
-5 -71 0
-6 -72 0
-7 -73 0
-8 -74 0
-9 -75 0
-10 -76 0
-11 -77 0
-12 -56 0
-13 -57 0
-14 -58 0
-15 -59 0
-16 -60 0
-17 -61 0
-18 -62 0
-19 -63 0
-20 -64 0
-21 -65 0
-22 -66 0
-166 -45 0
-167 -46 0
-168 -47 0
-169 -48 0
-170 -49 0
-171 -50 0
-172 -51 0
-173 -52 0
-174 -53 0
-175 -54 0
-176 -55 0
-12 -155 0
-13 -156 0
-14 -157 0
-15 -158 0
-16 -159 0
-17 -160 0
-18 -161 0
-19 -162 0
-20 -163 0
-21 -164 0
-22 -165 0
-67 -111 0
-68 -112 0
-69 -113 0
-70 -114 0
-71 -115 0
-72 -116 0
-73 -117 0
-74 -118 0
-75 -119 0
-76 -120 0
-77 -121 0
-56 -155 0
-57 -156 0
-58 -157 0
-59 -158 0
-60 -159 0
-61 -160 0
-62 -161 0
-63 -162 0
-64 -163 0
-65 -164 0
-66 -165 0
-221 -133 0
-222 -134 0
-223 -135 0
-224 -136 0
-225 -137 0
-226 -138 0
-227 -139 0
-228 -140 0
-229 -141 0
-230 -142 0
-231 -143 0
-23 -67 0
-24 -68 0
-25 -69 0
-26 -70 0
-27 -71 0
-28 -72 0
-29 -73 0
-30 -74 0
-31 -75 0
-32 -76 0
-33 -77 0
-34 -56 0
-35 -57 0
-36 -58 0
-37 -59 0
-38 -60 0
-39 -61 0
-40 -62 0
-41 -63 0
-42 -64 0
-43 -65 0
-44 -66 0
-45 -133 0
-46 -134 0
-47 -135 0
-48 -136 0
-49 -137 0
-50 -138 0
-51 -139 0
-52 -140 0
-53 -141 0
-54 -142 0
-55 -143 0
-34 -155 0
-35 -156 0
-36 -157 0
-37 -158 0
-38 -159 0
-39 -160 0
-40 -161 0
-41 -162 0
-42 -163 0
-43 -164 0
-44 -165 0
-177 -188 0
-178 -189 0
-179 -190 0
-180 -191 0
-181 -192 0
-182 -193 0
-183 -194 0
-184 -195 0
-185 -196 0
-186 -197 0
-187 -198 0
-100 -122 0
-101 -123 0
-102 -124 0
-103 -125 0
-104 -126 0
-105 -127 0
-106 -128 0
-107 -129 0
-108 -130 0
-109 -131 0
-110 -132 0
-1 -89 0
-2 -90 0
-3 -91 0
-4 -92 0
-5 -93 0
-6 -94 0
-7 -95 0
-8 -96 0
-9 -97 0
-10 -98 0
-11 -99 0
-12 -78 0
-13 -79 0
-14 -80 0
-15 -81 0
-16 -82 0
-17 -83 0
-18 -84 0
-19 -85 0
-20 -86 0
-21 -87 0
-22 -88 0
-166 -67 0
-167 -68 0
-168 -69 0
-169 -70 0
-170 -71 0
-171 -72 0
-172 -73 0
-173 -74 0
-174 -75 0
-175 -76 0
-176 -77 0
-56 -78 0
-57 -79 0
-58 -80 0
-59 -81 0
-60 -82 0
-61 -83 0
-62 -84 0
-63 -85 0
-64 -86 0
-65 -87 0
-66 -88 0
-221 -56 0
-222 -57 0
-223 -58 0
-224 -59 0
-225 -60 0
-226 -61 0
-227 -62 0
-228 -63 0
-229 -64 0
-230 -65 0
-231 -66 0
-23 -89 0
-24 -90 0
-25 -91 0
-26 -92 0
-27 -93 0
-28 -94 0
-29 -95 0
-30 -96 0
-31 -97 0
-32 -98 0
-33 -99 0
-45 -56 0
-46 -57 0
-47 -58 0
-48 -59 0
-49 -60 0
-50 -61 0
-51 -62 0
-52 -63 0
-53 -64 0
-54 -65 0
-55 -66 0
-34 -78 0
-35 -79 0
-36 -80 0
-37 -81 0
-38 -82 0
-39 -83 0
-40 -84 0
-41 -85 0
-42 -86 0
-43 -87 0
-44 -88 0
-1 -12 0
-2 -13 0
-3 -14 0
-4 -15 0
-5 -16 0
-6 -17 0
-7 -18 0
-8 -19 0
-9 -20 0
-10 -21 0
-11 -22 0
-177 -210 0
-178 -211 0
-179 -212 0
-180 -213 0
-181 -214 0
-182 -215 0
-183 -216 0
-184 -217 0
-185 -218 0
-186 -219 0
-187 -220 0
-1 -111 0
-2 -112 0
-3 -113 0
-4 -114 0
-5 -115 0
-6 -116 0
-7 -117 0
-8 -118 0
-9 -119 0
-10 -120 0
-11 -121 0
-111 -133 0
-112 -134 0
-113 -135 0
-114 -136 0
-115 -137 0
-116 -138 0
-117 -139 0
-118 -140 0
-119 -141 0
-120 -142 0
-121 -143 0
-12 -100 0
-13 -101 0
-14 -102 0
-15 -103 0
-16 -104 0
-17 -105 0
-18 -106 0
-19 -107 0
-20 -108 0
-21 -109 0
-22 -110 0
-166 -89 0
-167 -90 0
-168 -91 0
-169 -92 0
-170 -93 0
-171 -94 0
-172 -95 0
-173 -96 0
-174 -97 0
-175 -98 0
-176 -99 0
-12 -199 0
-13 -200 0
-14 -201 0
-15 -202 0
-16 -203 0
-17 -204 0
-18 -205 0
-19 -206 0
-20 -207 0
-21 -208 0
-22 -209 0
-56 -100 0
-57 -101 0
-58 -102 0
-59 -103 0
-60 -104 0
-61 -105 0
-62 -106 0
-63 -107 0
-64 -108 0
-65 -109 0
-66 -110 0
-67 -188 0
-68 -189 0
-69 -190 0
-70 -191 0
-71 -192 0
-72 -193 0
-73 -194 0
-74 -195 0
-75 -196 0
-76 -197 0
-77 -198 0
-221 -177 0
-222 -178 0
-223 -179 0
-224 -180 0
-225 -181 0
-226 -182 0
-227 -183 0
-228 -184 0
-229 -185 0
-230 -186 0
-231 -187 0
-23 -111 0
-24 -112 0
-25 -113 0
-26 -114 0
-27 -115 0
-28 -116 0
-29 -117 0
-30 -118 0
-31 -119 0
-32 -120 0
-33 -121 0
-144 -111 0
-145 -112 0
-146 -113 0
-147 -114 0
-148 -115 0
-149 -116 0
-150 -117 0
-151 -118 0
-152 -119 0
-153 -120 0
-154 -121 0
-34 -100 0
-35 -101 0
-36 -102 0
-37 -103 0
-38 -104 0
-39 -105 0
-40 -106 0
-41 -107 0
-42 -108 0
-43 -109 0
-44 -110 0
-34 -199 0
-35 -200 0
-36 -201 0
-37 -202 0
-38 -203 0
-39 -204 0
-40 -205 0
-41 -206 0
-42 -207 0
-43 -208 0
-44 -209 0
-177 -133 0
-178 -134 0
-179 -135 0
-180 -136 0
-181 -137 0
-182 -138 0
-183 -139 0
-184 -140 0
-185 -141 0
-186 -142 0
-187 -143 0
-78 -100 0
-79 -101 0
-80 -102 0
-81 -103 0
-82 -104 0
-83 -105 0
-84 -106 0
-85 -107 0
-86 -108 0
-87 -109 0
-88 -110 0
-199 -100 0
-200 -101 0
-201 -102 0
-202 -103 0
-203 -104 0
-204 -105 0
-205 -106 0
-206 -107 0
-207 -108 0
-208 -109 0
-209 -110 0
-1 -34 0
-2 -35 0
-3 -36 0
-4 -37 0
-5 -38 0
-6 -39 0
-7 -40 0
-8 -41 0
-9 -42 0
-10 -43 0
-11 -44 0
-12 -23 0
-13 -24 0
-14 -25 0
-15 -26 0
-16 -27 0
-17 -28 0
-18 -29 0
-19 -30 0
-20 -31 0
-21 -32 0
-22 -33 0
-45 -210 0
-46 -211 0
-47 -212 0
-48 -213 0
-49 -214 0
-50 -215 0
-51 -216 0
-52 -217 0
-53 -218 0
-54 -219 0
-55 -220 0
-1 -133 0
-2 -134 0
-3 -135 0
-4 -136 0
-5 -137 0
-6 -138 0
-7 -139 0
-8 -140 0
-9 -141 0
-10 -142 0
-11 -143 0
-89 -188 0
-90 -189 0
-91 -190 0
-92 -191 0
-93 -192 0
-94 -193 0
-95 -194 0
-96 -195 0
-97 -196 0
-98 -197 0
-99 -198 0
-12 -122 0
-13 -123 0
-14 -124 0
-15 -125 0
-16 -126 0
-17 -127 0
-18 -128 0
-19 -129 0
-20 -130 0
-21 -131 0
-22 -132 0
-56 -122 0
-57 -123 0
-58 -124 0
-59 -125 0
-60 -126 0
-61 -127 0
-62 -128 0
-63 -129 0
-64 -130 0
-65 -131 0
-66 -132 0
-221 -100 0
-222 -101 0
-223 -102 0
-224 -103 0
-225 -104 0
-226 -105 0
-227 -106 0
-228 -107 0
-229 -108 0
-230 -109 0
-231 -110 0
-23 -34 0
-24 -35 0
-25 -36 0
-26 -37 0
-27 -38 0
-28 -39 0
-29 -40 0
-30 -41 0
-31 -42 0
-32 -43 0
-33 -44 0
-67 -210 0
-68 -211 0
-69 -212 0
-70 -213 0
-71 -214 0
-72 -215 0
-73 -216 0
-74 -217 0
-75 -218 0
-76 -219 0
-77 -220 0
-188 -210 0
-189 -211 0
-190 -212 0
-191 -213 0
-192 -214 0
-193 -215 0
-194 -216 0
-195 -217 0
-196 -218 0
-197 -219 0
-198 -220 0
-221 -199 0
-222 -200 0
-223 -201 0
-224 -202 0
-225 -203 0
-226 -204 0
-227 -205 0
-228 -206 0
-229 -207 0
-230 -208 0
-231 -209 0
-34 -122 0
-35 -123 0
-36 -124 0
-37 -125 0
-38 -126 0
-39 -127 0
-40 -128 0
-41 -129 0
-42 -130 0
-43 -131 0
-44 -132 0
-177 -56 0
-178 -57 0
-179 -58 0
-180 -59 0
-181 -60 0
-182 -61 0
-183 -62 0
-184 -63 0
-185 -64 0
-186 -65 0
-187 -66 0
-78 -122 0
-79 -123 0
-80 -124 0
-81 -125 0
-82 -126 0
-83 -127 0
-84 -128 0
-85 -129 0
-86 -130 0
-87 -131 0
-88 -132 0
-199 -122 0
-200 -123 0
-201 -124 0
-202 -125 0
-203 -126 0
-204 -127 0
-205 -128 0
-206 -129 0
-207 -130 0
-208 -131 0
-209 -132 0
-1 -56 0
-2 -57 0
-3 -58 0
-4 -59 0
-5 -60 0
-6 -61 0
-7 -62 0
-8 -63 0
-9 -64 0
-10 -65 0
-11 -66 0
-89 -111 0
-90 -112 0
-91 -113 0
-92 -114 0
-93 -115 0
-94 -116 0
-95 -117 0
-96 -118 0
-97 -119 0
-98 -120 0
-99 -121 0
-12 -45 0
-13 -46 0
-14 -47 0
-15 -48 0
-16 -49 0
-17 -50 0
-18 -51 0
-19 -52 0
-20 -53 0
-21 -54 0
-22 -55 0
-166 -34 0
-167 -35 0
-168 -36 0
-169 -37 0
-170 -38 0
-171 -39 0
-172 -40 0
-173 -41 0
-174 -42 0
-175 -43 0
-176 -44 0
-100 -188 0
-101 -189 0
-102 -190 0
-103 -191 0
-104 -192 0
-105 -193 0
-106 -194 0
-107 -195 0
-108 -196 0
-109 -197 0
-110 -198 0
-89 -210 0
-90 -211 0
-91 -212 0
-92 -213 0
-93 -214 0
-94 -215 0
-95 -216 0
-96 -217 0
-97 -218 0
-98 -219 0
-99 -220 0
-12 -144 0
-13 -145 0
-14 -146 0
-15 -147 0
-16 -148 0
-17 -149 0
-18 -150 0
-19 -151 0
-20 -152 0
-21 -153 0
-22 -154 0
-155 -78 0
-156 -79 0
-157 -80 0
-158 -81 0
-159 -82 0
-160 -83 0
-161 -84 0
-162 -85 0
-163 -86 0
-164 -87 0
-165 -88 0
-133 -210 0
-134 -211 0
-135 -212 0
-136 -213 0
-137 -214 0
-138 -215 0
-139 -216 0
-140 -217 0
-141 -218 0
-142 -219 0
-143 -220 0
-56 -144 0
-57 -145 0
-58 -146 0
-59 -147 0
-60 -148 0
-61 -149 0
-62 -150 0
-63 -151 0
-64 -152 0
-65 -153 0
-66 -154 0
-67 -133 0
-68 -134 0
-69 -135 0
-70 -136 0
-71 -137 0
-72 -138 0
-73 -139 0
-74 -140 0
-75 -141 0
-76 -142 0
-77 -143 0
-188 -133 0
-189 -134 0
-190 -135 0
-191 -136 0
-192 -137 0
-193 -138 0
-194 -139 0
-195 -140 0
-196 -141 0
-197 -142 0
-198 -143 0
-221 -122 0
-222 -123 0
-223 -124 0
-224 -125 0
-225 -126 0
-226 -127 0
-227 -128 0
-228 -129 0
-229 -130 0
-230 -131 0
-231 -132 0
-34 -45 0
-35 -46 0
-36 -47 0
-37 -48 0
-38 -49 0
-39 -50 0
-40 -51 0
-41 -52 0
-42 -53 0
-43 -54 0
-44 -55 0
-34 -144 0
-35 -145 0
-36 -146 0
-37 -147 0
-38 -148 0
-39 -149 0
-40 -150 0
-41 -151 0
-42 -152 0
-43 -153 0
-44 -154 0
-199 -45 0
-200 -46 0
-201 -47 0
-202 -48 0
-203 -49 0
-204 -50 0
-205 -51 0
-206 -52 0
-207 -53 0
-208 -54 0
-209 -55 0
-78 -144 0
-79 -145 0
-80 -146 0
-81 -147 0
-82 -148 0
-83 -149 0
-84 -150 0
-85 -151 0
-86 -152 0
-87 -153 0
-88 -154 0
-100 -111 0
-101 -112 0
-102 -113 0
-103 -114 0
-104 -115 0
-105 -116 0
-106 -117 0
-107 -118 0
-108 -119 0
-109 -120 0
-110 -121 0
-89 -133 0
-90 -134 0
-91 -135 0
-92 -136 0
-93 -137 0
-94 -138 0
-95 -139 0
-96 -140 0
-97 -141 0
-98 -142 0
-99 -143 0
-12 -67 0
-13 -68 0
-14 -69 0
-15 -70 0
-16 -71 0
-17 -72 0
-18 -73 0
-19 -74 0
-20 -75 0
-21 -76 0
-22 -77 0
-155 -1 0
-156 -2 0
-157 -3 0
-158 -4 0
-159 -5 0
-160 -6 0
-161 -7 0
-162 -8 0
-163 -9 0
-164 -10 0
-165 -11 0
-12 -166 0
-13 -167 0
-14 -168 0
-15 -169 0
-16 -170 0
-17 -171 0
-18 -172 0
-19 -173 0
-20 -174 0
-21 -175 0
-22 -176 0
-155 -100 0
-156 -101 0
-157 -102 0
-158 -103 0
-159 -104 0
-160 -105 0
-161 -106 0
-162 -107 0
-163 -108 0
-164 -109 0
-165 -110 0
-56 -67 0
-57 -68 0
-58 -69 0
-59 -70 0
-60 -71 0
-61 -72 0
-62 -73 0
-63 -74 0
-64 -75 0
-65 -76 0
-66 -77 0
-221 -45 0
-222 -46 0
-223 -47 0
-224 -48 0
-225 -49 0
-226 -50 0
-227 -51 0
-228 -52 0
-229 -53 0
-230 -54 0
-231 -55 0
-34 -67 0
-35 -68 0
-36 -69 0
-37 -70 0
-38 -71 0
-39 -72 0
-40 -73 0
-41 -74 0
-42 -75 0
-43 -76 0
-44 -77 0
-45 -78 0
-46 -79 0
-47 -80 0
-48 -81 0
-49 -82 0
-50 -83 0
-51 -84 0
-52 -85 0
-53 -86 0
-54 -87 0
-55 -88 0
-177 -100 0
-178 -101 0
-179 -102 0
-180 -103 0
-181 -104 0
-182 -105 0
-183 -106 0
-184 -107 0
-185 -108 0
-186 -109 0
-187 -110 0
-199 -67 0
-200 -68 0
-201 -69 0
-202 -70 0
-203 -71 0
-204 -72 0
-205 -73 0
-206 -74 0
-207 -75 0
-208 -76 0
-209 -77 0
-177 -199 0
-178 -200 0
-179 -201 0
-180 -202 0
-181 -203 0
-182 -204 0
-183 -205 0
-184 -206 0
-185 -207 0
-186 -208 0
-187 -209 0
-100 -133 0
-101 -134 0
-102 -135 0
-103 -136 0
-104 -137 0
-105 -138 0
-106 -139 0
-107 -140 0
-108 -141 0
-109 -142 0
-110 -143 0
-111 -122 0
-112 -123 0
-113 -124 0
-114 -125 0
-115 -126 0
-116 -127 0
-117 -128 0
-118 -129 0
-119 -130 0
-120 -131 0
-121 -132 0
-12 -89 0
-13 -90 0
-14 -91 0
-15 -92 0
-16 -93 0
-17 -94 0
-18 -95 0
-19 -96 0
-20 -97 0
-21 -98 0
-22 -99 0
-155 -23 0
-156 -24 0
-157 -25 0
-158 -26 0
-159 -27 0
-160 -28 0
-161 -29 0
-162 -30 0
-163 -31 0
-164 -32 0
-165 -33 0
-12 -188 0
-13 -189 0
-14 -190 0
-15 -191 0
-16 -192 0
-17 -193 0
-18 -194 0
-19 -195 0
-20 -196 0
-21 -197 0
-22 -198 0
-155 -122 0
-156 -123 0
-157 -124 0
-158 -125 0
-159 -126 0
-160 -127 0
-161 -128 0
-162 -129 0
-163 -130 0
-164 -131 0
-165 -132 0
-56 -89 0
-57 -90 0
-58 -91 0
-59 -92 0
-60 -93 0
-61 -94 0
-62 -95 0
-63 -96 0
-64 -97 0
-65 -98 0
-66 -99 0
-67 -78 0
-68 -79 0
-69 -80 0
-70 -81 0
-71 -82 0
-72 -83 0
-73 -84 0
-74 -85 0
-75 -86 0
-76 -87 0
-77 -88 0
-221 -67 0
-222 -68 0
-223 -69 0
-224 -70 0
-225 -71 0
-226 -72 0
-227 -73 0
-228 -74 0
-229 -75 0
-230 -76 0
-231 -77 0
